100
128
4
10
3
5
2
17
26
27
11
9
18
4
19
29
18
17
18
19
17
11
8
9
5
14
23
1
5
15
21
3
6
10
2
12
5
17
1
10
4
17
11
8
2
7
9
3
20
17
8
4
4
28
13
55
5
11
1
44
43
56
2
49
4
6
3
51
2
48
64
1
3
52
10
1
60
49
1
40
44
62
15
49
62
22
63
9
45
20
42
29
8
36
55
1
51
28
45
29
32
31